NAME : M2.396916977.tour
COMMENT : Cost = 0_396916977
COMMENT : Found by LKH [Keld Helsgaun] Sun Sep 10 07:32:57 2017
TYPE : TOUR
DIMENSION : 135
TOUR_SECTION
1
102
52
107
89
56
95
94
39
106
30
24
15
2
133
115
54
69
45
44
122
34
32
7
13
5
8
135
49
41
60
116
91
92
117
101
50
35
59
124
3
20
26
12
129
85
36
82
73
88
63
46
68
90
22
131
86
83
27
84
113
104
47
112
23
6
18
132
100
105
72
79
71
97
62
48
58
55
78
109
19
16
9
128
31
118
37
53
87
111
120
40
127
64
103
126
119
70
99
74
42
76
98
17
130
123
75
29
61
110
93
28
125
81
114
65
108
134
77
67
121
96
38
43
51
66
33
57
80
11
25
4
14
21
10
-1
EOF
